Running for instance ./models/rc202.txt
Generating routes...
Execution time:  4.585727  seconds
Academic license - for non-commercial use only
Warning: constraint name "Cliente esta na rota x1" has a space
Optimize a model with 26 rows, 10000 columns and 81931 nonzeros
Variable types: 0 continuous, 10000 integer (0 binary)
Coefficient statistics:
  Matrix range     [1e+00, 1e+00]
  Objective range  [6e+01, 4e+02]
  Bounds range     [1e+00, 1e+00]
  RHS range        [1e+00, 2e+01]
Found heuristic solution: objective 811.2572411
Presolve removed 1 rows and 4339 columns
Presolve time: 0.07s
Presolved: 25 rows, 5661 columns, 35868 nonzeros
Variable types: 0 continuous, 5661 integer (5661 binary)

Root relaxation: objective 4.515472e+02, 64 iterations, 0.01 seconds

    Nodes    |    Current Node    |     Objective Bounds      |     Work
 Expl Unexpl |  Obj  Depth IntInf | Incumbent    BestBd   Gap | It/Node Time

     0     0  451.54722    0    8  811.25724  451.54722  44.3%     -    0s
H    0     0                     579.9589928  451.54722  22.1%     -    0s
H    0     0                     477.3546967  451.54722  5.41%     -    0s
     0     0  457.09512    0   12  477.35470  457.09512  4.24%     -    0s
     0     0  458.39648    0   12  477.35470  458.39648  3.97%     -    0s
     0     0  459.03355    0    9  477.35470  459.03355  3.84%     -    0s
     0     0  459.73570    0    9  477.35470  459.73570  3.69%     -    0s
     0     0  460.09173    0    8  477.35470  460.09173  3.62%     -    0s
     0     0  460.09173    0    8  477.35470  460.09173  3.62%     -    0s

Explored 1 nodes (98 simplex iterations) in 0.17 seconds
Thread count was 8 (of 8 available processors)

Solution count 3: 477.355 579.959 811.257 

Optimal solution found (tolerance 1.00e-04)
Best objective 4.773546967167e+02, best bound 4.773546967167e+02, gap 0.0000%

Routes:
6 8 4
12 14 16 15 13 17 7 5 1 3 2
11 9 10 24 25 21
19 23 18 22 20

Distance: 477.354696717
Execution time:  5.653453  seconds
